p edge 250 3113
e 1 4
e 1 18
e 1 19
e 1 20
e 1 62
e 1 77
e 1 84
e 1 93
e 1 97
e 1 100
e 1 102
e 1 106
e 1 113
e 1 127
e 1 143
e 1 173
e 1 194
e 1 199
e 1 208
e 1 209
e 1 220
e 1 227
e 1 228
e 1 230
e 2 4
e 2 16
e 2 31
e 2 41
e 2 42
e 2 44
e 2 45
e 2 54
e 2 57
e 2 58
e 2 78
e 2 87
e 2 88
e 2 90
e 2 96
e 2 98
e 2 100
e 2 109
e 2 112
e 2 138
e 2 143
e 2 150
e 2 151
e 2 157
e 2 158
e 2 166
e 2 167
e 2 179
e 2 185
e 2 205
e 2 211
e 2 213
e 2 234
e 3 9
e 3 11
e 3 14
e 3 26
e 3 40
e 3 44
e 3 54
e 3 61
e 3 71
e 3 77
e 3 88
e 3 89
e 3 95
e 3 101
e 3 104
e 3 115
e 3 117
e 3 126
e 3 130
e 3 133
e 3 138
e 3 140
e 3 158
e 3 161
e 3 166
e 3 192
e 3 193
e 3 207
e 3 209
e 3 229
e 3 236
e 3 250
e 4 5
e 4 13
e 4 18
e 4 22
e 4 24
e 4 26
e 4 29
e 4 32
e 4 48
e 4 59
e 4 63
e 4 92
e 4 104
e 4 105
e 4 106
e 4 125
e 4 129
e 4 143
e 4 147
e 4 160
e 4 161
e 4 163
e 4 166
e 4 167
e 4 191
e 4 195
e 4 198
e 4 218
e 4 229
e 4 240
e 5 7
e 5 32
e 5 37
e 5 49
e 5 56
e 5 58
e 5 61
e 5 66
e 5 83
e 5 86
e 5 91
e 5 92
e 5 102
e 5 103
e 5 106
e 5 109
e 5 110
e 5 113
e 5 125
e 5 133
e 5 138
e 5 140
e 5 142
e 5 148
e 5 164
e 5 175
e 5 206
e 6 9
e 6 45
e 6 50
e 6 58
e 6 72
e 6 79
e 6 81
e 6 83
e 6 119
e 6 147
e 6 161
e 6 164
e 6 175
e 6 184
e 6 185
e 6 187
e 6 188
e 6 189
e 6 205
e 6 212
e 6 224
e 6 225
e 6 227
e 6 229
e 6 245
e 6 246
e 6 247
e 7 13
e 7 19
e 7 28
e 7 29
e 7 37
e 7 40
e 7 49
e 7 50
e 7 52
e 7 54
e 7 60
e 7 64
e 7 67
e 7 70
e 7 74
e 7 89
e 7 94
e 7 114
e 7 143
e 7 144
e 7 169
e 7 170
e 7 181
e 7 193
e 7 194
e 7 195
e 7 201
e 7 226
e 7 227
e 7 250
e 8 11
e 8 15
e 8 23
e 8 24
e 8 27
e 8 31
e 8 36
e 8 40
e 8 46
e 8 47
e 8 67
e 8 115
e 8 116
e 8 143
e 8 145
e 8 149
e 8 163
e 8 178
e 8 180
e 8 184
e 8 195
e 8 196
e 8 199
e 8 201
e 8 208
e 8 211
e 8 223
e 8 227
e 8 237
e 9 44
e 9 46
e 9 48
e 9 49
e 9 53
e 9 64
e 9 66
e 9 72
e 9 73
e 9 82
e 9 104
e 9 109
e 9 131
e 9 137
e 9 149
e 9 177
e 9 185
e 9 225
e 9 228
e 9 229
e 9 234
e 10 12
e 10 15
e 10 19
e 10 36
e 10 41
e 10 48
e 10 66
e 10 68
e 10 77
e 10 85
e 10 106
e 10 119
e 10 140
e 10 157
e 10 160
e 10 163
e 10 178
e 10 190
e 10 192
e 10 203
e 10 212
e 10 213
e 10 238
e 10 240
e 10 249
e 11 38
e 11 39
e 11 44
e 11 45
e 11 59
e 11 63
e 11 67
e 11 68
e 11 100
e 11 102
e 11 146
e 11 150
e 11 153
e 11 155
e 11 169
e 11 199
e 11 208
e 11 230
e 11 243
e 11 250
e 12 55
e 12 59
e 12 60
e 12 61
e 12 71
e 12 80
e 12 82
e 12 97
e 12 105
e 12 131
e 12 152
e 12 175
e 12 191
e 12 193
e 12 223
e 12 228
e 12 243
e 13 17
e 13 26
e 13 40
e 13 44
e 13 48
e 13 52
e 13 56
e 13 58
e 13 63
e 13 68
e 13 78
e 13 91
e 13 109
e 13 115
e 13 133
e 13 137
e 13 140
e 13 160
e 13 161
e 13 179
e 13 188
e 13 190
e 13 191
e 13 194
e 13 204
e 13 220
e 13 226
e 13 228
e 13 243
e 14 16
e 14 26
e 14 31
e 14 52
e 14 55
e 14 56
e 14 59
e 14 65
e 14 79
e 14 88
e 14 94
e 14 106
e 14 110
e 14 112
e 14 128
e 14 132
e 14 136
e 14 149
e 14 156
e 14 173
e 14 182
e 14 185
e 14 186
e 14 216
e 14 243
e 15 20
e 15 26
e 15 59
e 15 66
e 15 78
e 15 99
e 15 100
e 15 102
e 15 103
e 15 107
e 15 122
e 15 141
e 15 145
e 15 149
e 15 150
e 15 151
e 15 152
e 15 165
e 15 178
e 15 183
e 15 189
e 15 205
e 15 209
e 15 226
e 15 247
e 15 248
e 16 40
e 16 42
e 16 65
e 16 71
e 16 86
e 16 88
e 16 89
e 16 101
e 16 109
e 16 132
e 16 142
e 16 144
e 16 148
e 16 149
e 16 158
e 16 167
e 16 195
e 16 205
e 16 207
e 16 240
e 17 26
e 17 31
e 17 40
e 17 50
e 17 57
e 17 60
e 17 69
e 17 94
e 17 125
e 17 131
e 17 134
e 17 138
e 17 155
e 17 156
e 17 159
e 17 163
e 17 167
e 17 171
e 17 190
e 17 225
e 17 232
e 17 233
e 17 243
e 17 247
e 18 40
e 18 41
e 18 63
e 18 65
e 18 67
e 18 88
e 18 107
e 18 110
e 18 128
e 18 146
e 18 192
e 18 206
e 18 220
e 18 240
e 19 20
e 19 29
e 19 45
e 19 46
e 19 50
e 19 54
e 19 59
e 19 66
e 19 78
e 19 90
e 19 95
e 19 98
e 19 117
e 19 137
e 19 157
e 19 170
e 19 177
e 19 192
e 19 196
e 19 209
e 19 210
e 19 212
e 19 218
e 19 227
e 19 245
e 19 247
e 20 40
e 20 54
e 20 81
e 20 83
e 20 105
e 20 126
e 20 143
e 20 145
e 20 152
e 20 165
e 20 168
e 20 185
e 20 187
e 20 189
e 20 194
e 20 220
e 20 223
e 20 241
e 21 23
e 21 28
e 21 34
e 21 36
e 21 39
e 21 41
e 21 50
e 21 66
e 21 128
e 21 129
e 21 149
e 21 163
e 21 166
e 21 169
e 21 175
e 21 180
e 21 200
e 21 201
e 21 206
e 21 210
e 21 213
e 21 217
e 21 233
e 21 239
e 22 43
e 22 52
e 22 57
e 22 61
e 22 76
e 22 103
e 22 123
e 22 138
e 22 157
e 22 162
e 22 173
e 22 174
e 22 177
e 22 187
e 22 193
e 22 211
e 22 212
e 22 220
e 22 232
e 22 239
e 22 241
e 22 246
e 22 247
e 22 248
e 23 37
e 23 41
e 23 43
e 23 48
e 23 60
e 23 85
e 23 96
e 23 100
e 23 119
e 23 124
e 23 149
e 23 153
e 23 170
e 23 197
e 23 218
e 23 222
e 23 230
e 23 237
e 23 246
e 24 43
e 24 60
e 24 62
e 24 71
e 24 80
e 24 83
e 24 98
e 24 103
e 24 108
e 24 142
e 24 147
e 24 176
e 24 177
e 24 183
e 24 192
e 24 204
e 24 206
e 24 209
e 24 218
e 24 226
e 24 228
e 24 237
e 24 246
e 24 250
e 25 28
e 25 48
e 25 52
e 25 68
e 25 71
e 25 81
e 25 84
e 25 92
e 25 93
e 25 128
e 25 129
e 25 146
e 25 169
e 25 177
e 25 183
e 25 190
e 25 203
e 25 220
e 25 246
e 26 36
e 26 48
e 26 54
e 26 79
e 26 96
e 26 102
e 26 107
e 26 114
e 26 115
e 26 146
e 26 158
e 26 162
e 26 169
e 26 173
e 26 180
e 26 181
e 26 187
e 26 189
e 26 197
e 26 201
e 26 203
e 26 211
e 26 217
e 26 237
e 26 246
e 27 30
e 27 33
e 27 40
e 27 42
e 27 43
e 27 44
e 27 56
e 27 65
e 27 68
e 27 69
e 27 85
e 27 98
e 27 147
e 27 163
e 27 169
e 27 176
e 27 187
e 27 196
e 27 201
e 27 205
e 27 210
e 27 214
e 27 216
e 27 221
e 27 230
e 27 234
e 27 240
e 27 248
e 28 31
e 28 38
e 28 59
e 28 60
e 28 61
e 28 67
e 28 70
e 28 83
e 28 85
e 28 101
e 28 113
e 28 116
e 28 123
e 28 135
e 28 143
e 28 145
e 28 150
e 28 171
e 28 172
e 28 181
e 28 182
e 28 189
e 28 190
e 28 195
e 28 201
e 28 239
e 28 241
e 29 35
e 29 38
e 29 40
e 29 42
e 29 47
e 29 54
e 29 55
e 29 59
e 29 61
e 29 88
e 29 90
e 29 93
e 29 119
e 29 128
e 29 154
e 29 165
e 29 179
e 29 202
e 29 205
e 29 225
e 29 230
e 29 237
e 29 243
e 29 245
e 29 247
e 30 62
e 30 68
e 30 74
e 30 79
e 30 87
e 30 101
e 30 112
e 30 116
e 30 129
e 30 133
e 30 134
e 30 147
e 30 152
e 30 159
e 30 179
e 30 182
e 30 183
e 30 187
e 30 192
e 30 193
e 30 195
e 30 199
e 30 208
e 30 209
e 30 219
e 30 224
e 30 232
e 30 244
e 30 247
e 31 47
e 31 67
e 31 125
e 31 136
e 31 137
e 31 151
e 31 188
e 31 207
e 31 211
e 31 214
e 31 227
e 31 228
e 31 231
e 31 244
e 32 40
e 32 43
e 32 54
e 32 55
e 32 56
e 32 59
e 32 61
e 32 71
e 32 79
e 32 96
e 32 99
e 32 104
e 32 131
e 32 151
e 32 153
e 32 176
e 32 215
e 32 219
e 32 238
e 33 34
e 33 51
e 33 67
e 33 72
e 33 77
e 33 94
e 33 115
e 33 125
e 33 134
e 33 138
e 33 147
e 33 151
e 33 198
e 33 210
e 33 212
e 33 214
e 34 37
e 34 51
e 34 69
e 34 76
e 34 90
e 34 93
e 34 126
e 34 129
e 34 131
e 34 136
e 34 139
e 34 147
e 34 195
e 34 198
e 34 202
e 34 205
e 34 215
e 34 220
e 34 235
e 34 236
e 34 240
e 35 45
e 35 50
e 35 60
e 35 62
e 35 63
e 35 66
e 35 67
e 35 84
e 35 88
e 35 107
e 35 146
e 35 158
e 35 173
e 35 195
e 35 206
e 35 207
e 35 209
e 35 212
e 35 220
e 35 244
e 35 246
e 36 48
e 36 49
e 36 51
e 36 61
e 36 66
e 36 84
e 36 86
e 36 116
e 36 129
e 36 140
e 36 147
e 36 158
e 36 163
e 36 168
e 36 186
e 36 194
e 36 200
e 36 212
e 36 230
e 36 233
e 36 236
e 36 244
e 37 56
e 37 80
e 37 81
e 37 85
e 37 101
e 37 102
e 37 110
e 37 111
e 37 117
e 37 126
e 37 128
e 37 129
e 37 134
e 37 143
e 37 148
e 37 154
e 37 158
e 37 160
e 37 186
e 37 196
e 37 215
e 37 221
e 37 224
e 37 230
e 37 241
e 37 242
e 37 247
e 38 56
e 38 58
e 38 60
e 38 72
e 38 82
e 38 87
e 38 104
e 38 130
e 38 134
e 38 149
e 38 150
e 38 152
e 38 158
e 38 164
e 38 169
e 38 173
e 38 180
e 38 199
e 38 202
e 38 215
e 38 240
e 38 242
e 38 247
e 38 249
e 39 61
e 39 75
e 39 97
e 39 117
e 39 118
e 39 135
e 39 155
e 39 187
e 39 196
e 39 198
e 39 212
e 39 213
e 39 221
e 39 246
e 40 52
e 40 55
e 40 58
e 40 68
e 40 72
e 40 86
e 40 94
e 40 99
e 40 102
e 40 104
e 40 109
e 40 113
e 40 119
e 40 123
e 40 138
e 40 139
e 40 161
e 40 164
e 40 170
e 40 172
e 40 181
e 40 182
e 40 194
e 40 203
e 40 205
e 40 206
e 40 207
e 40 210
e 40 216
e 40 217
e 40 231
e 40 243
e 40 248
e 41 45
e 41 53
e 41 57
e 41 63
e 41 64
e 41 85
e 41 88
e 41 101
e 41 102
e 41 103
e 41 106
e 41 110
e 41 113
e 41 114
e 41 131
e 41 132
e 41 145
e 41 157
e 41 159
e 41 160
e 41 169
e 41 211
e 41 212
e 41 214
e 41 215
e 41 235
e 41 238
e 42 77
e 42 83
e 42 104
e 42 110
e 42 116
e 42 117
e 42 136
e 42 173
e 42 197
e 42 213
e 42 219
e 42 231
e 42 235
e 42 242
e 42 245
e 43 50
e 43 54
e 43 62
e 43 86
e 43 96
e 43 128
e 43 130
e 43 140
e 43 143
e 43 146
e 43 147
e 43 151
e 43 157
e 43 171
e 43 190
e 43 208
e 43 209
e 43 213
e 43 215
e 43 230
e 43 241
e 43 248
e 44 56
e 44 69
e 44 84
e 44 95
e 44 105
e 44 107
e 44 127
e 44 129
e 44 137
e 44 145
e 44 155
e 44 167
e 44 186
e 44 189
e 44 194
e 44 195
e 44 215
e 44 235
e 44 250
e 45 52
e 45 86
e 45 89
e 45 114
e 45 123
e 45 153
e 45 169
e 45 175
e 45 203
e 45 229
e 45 235
e 45 245
e 46 52
e 46 86
e 46 103
e 46 107
e 46 110
e 46 119
e 46 142
e 46 143
e 46 162
e 46 179
e 46 192
e 46 196
e 46 201
e 46 205
e 46 209
e 46 223
e 47 73
e 47 91
e 47 96
e 47 110
e 47 111
e 47 142
e 47 143
e 47 151
e 47 153
e 47 157
e 47 177
e 47 181
e 47 182
e 47 191
e 47 192
e 47 195
e 47 197
e 47 201
e 47 207
e 47 215
e 47 222
e 47 248
e 48 53
e 48 55
e 48 67
e 48 77
e 48 93
e 48 97
e 48 109
e 48 113
e 48 129
e 48 142
e 48 176
e 48 178
e 48 196
e 48 202
e 48 203
e 48 204
e 48 207
e 48 217
e 48 221
e 48 247
e 49 119
e 49 144
e 49 148
e 49 159
e 49 194
e 49 200
e 49 201
e 49 210
e 49 212
e 50 61
e 50 78
e 50 81
e 50 90
e 50 129
e 50 136
e 50 146
e 50 152
e 50 169
e 50 185
e 50 194
e 50 196
e 50 202
e 50 207
e 50 218
e 50 219
e 50 242
e 51 54
e 51 56
e 51 76
e 51 98
e 51 128
e 51 142
e 51 157
e 51 172
e 51 179
e 51 194
e 51 200
e 51 202
e 51 203
e 51 218
e 51 231
e 52 54
e 52 69
e 52 78
e 52 87
e 52 96
e 52 101
e 52 112
e 52 120
e 52 130
e 52 132
e 52 142
e 52 145
e 52 146
e 52 156
e 52 157
e 52 169
e 52 178
e 52 190
e 52 191
e 52 198
e 52 199
e 52 222
e 52 228
e 52 229
e 52 236
e 52 240
e 53 54
e 53 59
e 53 64
e 53 66
e 53 68
e 53 76
e 53 96
e 53 107
e 53 125
e 53 168
e 53 170
e 53 180
e 53 183
e 53 209
e 53 212
e 53 213
e 53 223
e 53 234
e 53 240
e 53 244
e 54 57
e 54 66
e 54 69
e 54 75
e 54 81
e 54 85
e 54 99
e 54 108
e 54 119
e 54 121
e 54 139
e 54 146
e 54 147
e 54 195
e 54 202
e 54 209
e 54 220
e 54 226
e 54 234
e 54 248
e 55 71
e 55 75
e 55 95
e 55 99
e 55 119
e 55 135
e 55 146
e 55 158
e 55 177
e 55 187
e 55 193
e 55 203
e 55 247
e 56 66
e 56 74
e 56 79
e 56 87
e 56 102
e 56 109
e 56 121
e 56 141
e 56 147
e 56 156
e 56 159
e 56 161
e 56 167
e 56 175
e 56 190
e 56 195
e 56 211
e 56 214
e 56 218
e 56 219
e 56 226
e 56 230
e 56 231
e 56 243
e 57 61
e 57 62
e 57 63
e 57 73
e 57 76
e 57 78
e 57 94
e 57 106
e 57 110
e 57 126
e 57 128
e 57 143
e 57 147
e 57 167
e 57 192
e 57 212
e 57 223
e 57 230
e 57 248
e 58 63
e 58 65
e 58 80
e 58 88
e 58 112
e 58 117
e 58 129
e 58 136
e 58 145
e 58 168
e 58 180
e 58 205
e 58 220
e 58 224
e 59 61
e 59 76
e 59 83
e 59 87
e 59 89
e 59 92
e 59 110
e 59 111
e 59 121
e 59 128
e 59 147
e 59 149
e 59 152
e 59 168
e 59 172
e 59 178
e 59 212
e 59 214
e 59 217
e 59 220
e 59 222
e 59 231
e 59 250
e 60 64
e 60 65
e 60 76
e 60 88
e 60 99
e 60 121
e 60 128
e 60 129
e 60 159
e 60 165
e 60 168
e 60 183
e 60 191
e 60 197
e 60 200
e 60 207
e 60 216
e 60 219
e 60 225
e 60 228
e 60 234
e 60 242
e 60 243
e 61 66
e 61 69
e 61 71
e 61 85
e 61 97
e 61 116
e 61 117
e 61 119
e 61 123
e 61 149
e 61 169
e 61 181
e 61 194
e 61 201
e 61 208
e 61 209
e 61 226
e 61 236
e 62 64
e 62 78
e 62 80
e 62 87
e 62 88
e 62 111
e 62 118
e 62 127
e 62 149
e 62 164
e 62 169
e 62 177
e 62 227
e 62 234
e 62 238
e 62 241
e 62 249
e 63 67
e 63 77
e 63 80
e 63 87
e 63 125
e 63 134
e 63 135
e 63 150
e 63 168
e 63 169
e 63 180
e 63 182
e 63 187
e 63 196
e 63 211
e 63 213
e 63 242
e 64 69
e 64 98
e 64 100
e 64 120
e 64 126
e 64 130
e 64 137
e 64 139
e 64 141
e 64 158
e 64 194
e 64 200
e 64 224
e 64 249
e 65 78
e 65 85
e 65 88
e 65 95
e 65 97
e 65 100
e 65 122
e 65 139
e 65 143
e 65 150
e 65 156
e 65 165
e 65 169
e 65 170
e 65 185
e 65 186
e 65 199
e 65 203
e 65 205
e 65 206
e 65 212
e 65 219
e 65 223
e 65 241
e 65 249
e 66 75
e 66 80
e 66 81
e 66 94
e 66 104
e 66 113
e 66 124
e 66 141
e 66 145
e 66 148
e 66 171
e 66 177
e 66 194
e 66 199
e 66 220
e 66 221
e 66 237
e 66 245
e 67 79
e 67 80
e 67 83
e 67 85
e 67 86
e 67 93
e 67 118
e 67 131
e 67 153
e 67 174
e 67 175
e 67 176
e 67 178
e 67 186
e 67 208
e 67 215
e 67 219
e 67 237
e 67 239
e 67 240
e 67 248
e 68 71
e 68 79
e 68 107
e 68 117
e 68 119
e 68 127
e 68 148
e 68 152
e 68 163
e 68 165
e 68 166
e 68 177
e 68 184
e 68 188
e 68 194
e 68 202
e 68 207
e 68 215
e 68 222
e 68 227
e 68 246
e 69 89
e 69 95
e 69 114
e 69 122
e 69 124
e 69 133
e 69 137
e 69 153
e 69 156
e 69 182
e 69 190
e 69 204
e 69 209
e 69 215
e 70 72
e 70 73
e 70 83
e 70 89
e 70 98
e 70 102
e 70 108
e 70 129
e 70 133
e 70 135
e 70 145
e 70 148
e 70 155
e 70 170
e 70 171
e 70 180
e 70 186
e 70 192
e 70 193
e 70 194
e 70 196
e 70 200
e 70 218
e 70 219
e 70 238
e 70 239
e 70 242
e 71 81
e 71 87
e 71 112
e 71 113
e 71 124
e 71 145
e 71 149
e 71 150
e 71 161
e 71 168
e 71 176
e 71 186
e 71 202
e 71 222
e 71 228
e 71 239
e 71 244
e 71 245
e 71 247
e 72 78
e 72 79
e 72 109
e 72 128
e 72 148
e 72 150
e 72 153
e 72 155
e 72 157
e 72 158
e 72 163
e 72 169
e 72 175
e 72 177
e 72 179
e 72 180
e 72 188
e 72 199
e 72 203
e 72 204
e 72 205
e 72 210
e 72 211
e 72 218
e 72 220
e 72 221
e 72 239
e 73 80
e 73 91
e 73 106
e 73 126
e 73 131
e 73 145
e 73 156
e 73 174
e 73 179
e 73 181
e 73 195
e 73 196
e 73 198
e 73 201
e 73 207
e 73 216
e 73 218
e 73 237
e 73 244
e 74 75
e 74 79
e 74 86
e 74 91
e 74 95
e 74 106
e 74 108
e 74 109
e 74 111
e 74 112
e 74 114
e 74 128
e 74 137
e 74 139
e 74 145
e 74 158
e 74 166
e 74 191
e 74 192
e 74 197
e 74 203
e 74 205
e 74 214
e 74 222
e 74 225
e 74 237
e 74 238
e 75 84
e 75 89
e 75 104
e 75 116
e 75 128
e 75 137
e 75 138
e 75 143
e 75 147
e 75 173
e 75 177
e 75 184
e 75 186
e 75 188
e 75 196
e 75 205
e 75 223
e 75 230
e 76 79
e 76 92
e 76 96
e 76 106
e 76 117
e 76 122
e 76 124
e 76 135
e 76 149
e 76 163
e 76 166
e 76 171
e 76 176
e 76 179
e 76 182
e 76 205
e 76 208
e 76 212
e 76 238
e 76 241
e 76 245
e 76 248
e 77 115
e 77 116
e 77 145
e 77 156
e 77 172
e 77 174
e 77 182
e 77 188
e 77 199
e 77 202
e 77 227
e 77 239
e 78 96
e 78 111
e 78 117
e 78 118
e 78 131
e 78 148
e 78 149
e 78 150
e 78 153
e 78 156
e 78 167
e 78 168
e 78 172
e 78 182
e 78 189
e 78 208
e 78 219
e 78 240
e 79 85
e 79 148
e 79 151
e 79 162
e 79 166
e 79 174
e 79 177
e 79 182
e 79 186
e 79 204
e 79 220
e 79 229
e 79 235
e 79 246
e 80 85
e 80 91
e 80 119
e 80 131
e 80 135
e 80 153
e 80 161
e 80 175
e 80 183
e 80 185
e 80 211
e 80 219
e 80 224
e 80 226
e 80 241
e 81 88
e 81 96
e 81 99
e 81 118
e 81 123
e 81 130
e 81 141
e 81 147
e 81 151
e 81 164
e 81 172
e 81 173
e 81 175
e 81 176
e 81 205
e 81 207
e 81 211
e 81 225
e 81 237
e 81 238
e 81 240
e 82 87
e 82 90
e 82 92
e 82 108
e 82 109
e 82 134
e 82 135
e 82 138
e 82 141
e 82 143
e 82 175
e 82 176
e 82 187
e 82 196
e 82 217
e 82 226
e 82 229
e 82 240
e 83 87
e 83 92
e 83 99
e 83 100
e 83 105
e 83 106
e 83 113
e 83 124
e 83 135
e 83 139
e 83 159
e 83 162
e 83 164
e 83 183
e 83 196
e 83 202
e 83 205
e 83 210
e 83 211
e 83 212
e 83 214
e 83 216
e 84 86
e 84 99
e 84 104
e 84 107
e 84 115
e 84 119
e 84 125
e 84 135
e 84 139
e 84 149
e 84 152
e 84 154
e 84 156
e 84 157
e 84 159
e 84 167
e 84 170
e 84 171
e 84 180
e 84 186
e 84 187
e 84 216
e 84 217
e 84 225
e 84 239
e 84 243
e 85 88
e 85 99
e 85 104
e 85 110
e 85 111
e 85 139
e 85 146
e 85 159
e 85 179
e 85 182
e 85 195
e 85 210
e 85 215
e 85 237
e 85 242
e 85 247
e 85 249
e 86 96
e 86 100
e 86 102
e 86 190
e 86 217
e 86 222
e 87 91
e 87 105
e 87 115
e 87 120
e 87 122
e 87 132
e 87 141
e 87 142
e 87 154
e 87 164
e 87 184
e 87 185
e 87 188
e 87 207
e 87 248
e 88 91
e 88 101
e 88 126
e 88 131
e 88 135
e 88 140
e 88 141
e 88 147
e 88 152
e 88 159
e 88 160
e 88 169
e 88 186
e 88 192
e 88 198
e 88 201
e 88 208
e 88 209
e 88 217
e 89 91
e 89 103
e 89 107
e 89 110
e 89 184
e 89 240
e 89 247
e 90 91
e 90 97
e 90 101
e 90 139
e 90 149
e 90 165
e 90 168
e 90 170
e 90 174
e 90 177
e 90 187
e 90 193
e 90 208
e 90 222
e 90 248
e 91 94
e 91 98
e 91 104
e 91 120
e 91 132
e 91 135
e 91 146
e 91 154
e 91 158
e 91 163
e 91 181
e 91 185
e 91 195
e 91 214
e 91 234
e 92 93
e 92 107
e 92 109
e 92 112
e 92 123
e 92 132
e 92 155
e 92 159
e 92 160
e 92 175
e 92 183
e 92 196
e 92 211
e 92 220
e 92 221
e 92 230
e 92 236
e 92 239
e 92 246
e 93 120
e 93 129
e 93 130
e 93 136
e 93 138
e 93 163
e 93 166
e 93 172
e 93 204
e 93 208
e 93 233
e 93 235
e 93 237
e 94 105
e 94 110
e 94 122
e 94 129
e 94 135
e 94 141
e 94 161
e 94 162
e 94 165
e 94 190
e 94 202
e 94 208
e 94 227
e 94 229
e 94 237
e 94 238
e 95 96
e 95 124
e 95 132
e 95 150
e 95 155
e 95 171
e 95 176
e 95 187
e 95 190
e 95 194
e 95 202
e 95 206
e 95 225
e 95 230
e 95 243
e 96 99
e 96 101
e 96 108
e 96 110
e 96 121
e 96 124
e 96 139
e 96 145
e 96 159
e 96 173
e 96 189
e 96 190
e 96 206
e 96 207
e 96 232
e 96 233
e 97 98
e 97 99
e 97 127
e 97 132
e 97 135
e 97 157
e 97 159
e 97 172
e 97 183
e 97 195
e 97 207
e 97 215
e 97 228
e 97 235
e 98 99
e 98 117
e 98 133
e 98 142
e 98 151
e 98 160
e 98 161
e 98 165
e 98 183
e 98 187
e 98 188
e 98 201
e 98 218
e 99 121
e 99 127
e 99 147
e 99 149
e 99 176
e 99 180
e 99 187
e 99 208
e 99 216
e 99 222
e 99 237
e 100 102
e 100 116
e 100 120
e 100 131
e 100 134
e 100 140
e 100 152
e 100 155
e 100 166
e 100 177
e 100 202
e 100 231
e 100 243
e 100 249
e 101 103
e 101 106
e 101 108
e 101 116
e 101 153
e 101 161
e 101 170
e 101 171
e 101 193
e 101 206
e 102 122
e 102 123
e 102 125
e 102 142
e 102 148
e 102 152
e 102 155
e 102 165
e 102 176
e 102 181
e 102 188
e 102 204
e 102 210
e 102 214
e 102 218
e 102 221
e 102 238
e 102 239
e 103 109
e 103 113
e 103 202
e 103 205
e 103 209
e 103 226
e 103 236
e 103 249
e 104 121
e 104 122
e 104 123
e 104 129
e 104 137
e 104 149
e 104 156
e 104 188
e 104 195
e 104 225
e 105 124
e 105 133
e 105 137
e 105 147
e 105 148
e 105 165
e 105 166
e 105 167
e 105 191
e 105 196
e 105 199
e 105 219
e 105 225
e 105 228
e 105 234
e 105 235
e 105 240
e 105 242
e 105 246
e 106 126
e 106 133
e 106 156
e 106 161
e 106 162
e 106 182
e 106 184
e 106 198
e 106 231
e 106 238
e 107 140
e 107 152
e 107 161
e 107 181
e 107 186
e 107 193
e 107 207
e 107 208
e 107 215
e 107 216
e 107 220
e 107 230
e 107 232
e 107 239
e 108 115
e 108 139
e 108 177
e 108 187
e 108 192
e 108 201
e 108 203
e 108 214
e 108 216
e 108 221
e 108 231
e 108 232
e 108 248
e 109 111
e 109 135
e 109 137
e 109 144
e 109 159
e 109 173
e 109 177
e 109 198
e 109 200
e 109 202
e 109 204
e 109 209
e 109 212
e 109 215
e 109 217
e 109 223
e 109 246
e 109 248
e 109 249
e 110 111
e 110 119
e 110 153
e 110 157
e 110 160
e 110 162
e 110 173
e 110 187
e 110 199
e 110 216
e 110 232
e 110 234
e 110 238
e 110 239
e 110 240
e 110 241
e 110 246
e 111 122
e 111 131
e 111 132
e 111 133
e 111 164
e 111 165
e 111 167
e 111 222
e 111 225
e 111 231
e 111 237
e 112 113
e 112 114
e 112 123
e 112 131
e 112 136
e 112 138
e 112 143
e 112 148
e 112 171
e 112 193
e 112 210
e 112 216
e 112 219
e 112 232
e 112 245
e 113 114
e 113 129
e 113 130
e 113 139
e 113 147
e 113 162
e 113 164
e 113 166
e 113 171
e 113 172
e 113 189
e 113 227
e 113 244
e 113 246
e 113 250
e 114 122
e 114 165
e 114 166
e 114 169
e 114 192
e 114 206
e 114 218
e 114 220
e 114 224
e 114 229
e 114 245
e 114 250
e 115 116
e 115 141
e 115 143
e 115 153
e 115 164
e 115 191
e 115 222
e 115 226
e 115 235
e 115 236
e 116 120
e 116 132
e 116 133
e 116 141
e 116 168
e 116 178
e 116 182
e 116 190
e 116 210
e 116 214
e 116 232
e 116 233
e 116 241
e 116 244
e 117 121
e 117 128
e 117 130
e 117 169
e 117 193
e 117 196
e 117 214
e 117 215
e 117 241
e 117 245
e 117 250
e 118 131
e 118 138
e 118 147
e 118 150
e 118 174
e 118 176
e 118 184
e 118 199
e 118 220
e 118 233
e 118 237
e 118 248
e 118 250
e 119 123
e 119 134
e 119 163
e 119 164
e 119 177
e 119 184
e 119 186
e 119 203
e 119 214
e 119 230
e 119 246
e 120 123
e 120 129
e 120 132
e 120 147
e 120 151
e 120 159
e 120 163
e 120 172
e 120 173
e 120 180
e 120 201
e 120 220
e 120 244
e 121 130
e 121 148
e 121 157
e 121 165
e 121 170
e 121 188
e 121 199
e 121 200
e 121 201
e 121 203
e 121 219
e 121 223
e 121 233
e 121 237
e 121 244
e 122 126
e 122 128
e 122 158
e 122 171
e 122 181
e 122 182
e 122 187
e 122 193
e 122 217
e 122 242
e 122 243
e 123 152
e 123 155
e 123 158
e 123 170
e 123 176
e 123 194
e 123 206
e 123 211
e 123 217
e 123 241
e 123 242
e 124 130
e 124 151
e 124 176
e 124 211
e 124 220
e 124 222
e 124 241
e 124 245
e 125 127
e 125 138
e 125 141
e 125 155
e 125 167
e 125 170
e 125 192
e 125 209
e 125 236
e 125 245
e 126 137
e 126 141
e 126 155
e 126 187
e 126 198
e 126 202
e 126 203
e 126 211
e 126 215
e 127 134
e 127 141
e 127 158
e 127 163
e 127 166
e 127 178
e 127 181
e 127 201
e 127 205
e 127 209
e 127 220
e 127 225
e 127 228
e 127 238
e 127 250
e 128 137
e 128 166
e 128 170
e 128 177
e 128 179
e 128 186
e 128 210
e 128 231
e 128 243
e 129 173
e 129 176
e 129 186
e 129 187
e 129 193
e 129 194
e 129 200
e 129 202
e 129 216
e 129 219
e 129 232
e 129 235
e 129 237
e 130 136
e 130 147
e 130 157
e 130 176
e 130 192
e 130 194
e 130 202
e 130 244
e 130 250
e 131 133
e 131 136
e 131 140
e 131 149
e 131 150
e 131 162
e 131 166
e 131 178
e 131 194
e 131 195
e 131 245
e 132 144
e 132 161
e 132 163
e 132 167
e 132 171
e 132 172
e 132 180
e 132 183
e 132 190
e 132 192
e 132 204
e 132 214
e 132 220
e 133 164
e 133 172
e 133 180
e 133 181
e 133 182
e 133 183
e 133 184
e 133 187
e 133 189
e 133 196
e 133 206
e 133 210
e 133 218
e 133 226
e 133 237
e 133 244
e 134 137
e 134 157
e 134 158
e 134 159
e 134 165
e 134 169
e 134 180
e 134 191
e 134 193
e 134 220
e 134 228
e 134 243
e 134 247
e 135 164
e 135 176
e 135 199
e 135 210
e 135 215
e 135 220
e 135 225
e 135 226
e 135 231
e 135 233
e 135 238
e 135 249
e 135 250
e 136 153
e 136 160
e 136 167
e 136 179
e 136 189
e 136 196
e 136 201
e 136 246
e 137 145
e 137 157
e 137 161
e 137 164
e 137 181
e 137 197
e 137 222
e 137 227
e 137 237
e 137 249
e 138 145
e 138 148
e 138 150
e 138 151
e 138 176
e 138 178
e 138 184
e 138 186
e 138 202
e 138 203
e 138 207
e 138 216
e 138 224
e 138 239
e 139 141
e 139 142
e 139 149
e 139 156
e 139 159
e 139 168
e 139 171
e 139 193
e 139 195
e 139 217
e 139 231
e 139 238
e 139 240
e 140 156
e 140 159
e 140 172
e 140 178
e 140 182
e 140 184
e 140 195
e 140 200
e 140 221
e 140 231
e 140 232
e 140 248
e 141 144
e 141 145
e 141 148
e 141 169
e 141 175
e 141 182
e 141 195
e 141 206
e 141 208
e 141 220
e 141 231
e 141 232
e 141 233
e 141 240
e 142 144
e 142 145
e 142 149
e 142 150
e 142 160
e 142 163
e 142 171
e 142 174
e 142 175
e 142 179
e 142 181
e 142 193
e 142 194
e 142 207
e 143 145
e 143 152
e 143 155
e 143 160
e 143 170
e 143 186
e 143 189
e 143 194
e 143 198
e 143 208
e 143 217
e 143 218
e 143 223
e 143 227
e 143 237
e 143 246
e 144 161
e 144 168
e 144 199
e 144 211
e 144 217
e 144 230
e 144 231
e 144 232
e 144 242
e 144 250
e 145 171
e 145 194
e 145 198
e 145 201
e 145 207
e 145 227
e 145 228
e 145 231
e 145 243
e 146 168
e 146 170
e 146 192
e 146 217
e 146 234
e 146 245
e 146 250
e 147 153
e 147 167
e 147 171
e 147 173
e 147 174
e 147 176
e 147 186
e 147 192
e 148 152
e 148 175
e 148 185
e 148 200
e 148 202
e 148 211
e 148 214
e 148 226
e 149 168
e 149 171
e 149 188
e 149 228
e 149 232
e 149 233
e 149 235
e 150 165
e 150 168
e 150 193
e 150 197
e 150 198
e 150 206
e 150 210
e 150 220
e 151 191
e 151 194
e 151 217
e 151 219
e 152 165
e 152 168
e 152 171
e 152 173
e 152 195
e 152 198
e 152 240
e 153 158
e 153 160
e 153 174
e 153 175
e 153 176
e 153 177
e 153 189
e 153 190
e 153 201
e 153 203
e 153 224
e 153 232
e 154 162
e 154 165
e 154 213
e 154 230
e 154 243
e 154 246
e 155 162
e 155 179
e 155 190
e 155 193
e 155 199
e 155 205
e 155 207
e 155 208
e 155 216
e 155 218
e 155 235
e 155 247
e 156 165
e 156 171
e 156 177
e 156 197
e 156 199
e 156 225
e 156 232
e 156 233
e 156 235
e 156 243
e 157 158
e 157 160
e 157 162
e 157 168
e 157 190
e 157 194
e 157 207
e 157 208
e 157 209
e 157 210
e 157 211
e 157 217
e 157 223
e 157 224
e 157 237
e 158 193
e 158 241
e 158 242
e 158 245
e 158 249
e 159 168
e 159 191
e 159 203
e 159 227
e 159 229
e 159 232
e 160 162
e 160 168
e 160 175
e 160 179
e 160 182
e 160 186
e 160 191
e 160 197
e 160 210
e 160 232
e 160 245
e 160 247
e 160 248
e 160 250
e 161 176
e 161 219
e 161 220
e 161 224
e 161 235
e 161 236
e 161 238
e 161 242
e 161 247
e 162 173
e 162 177
e 162 183
e 162 201
e 162 202
e 162 205
e 162 207
e 162 218
e 162 220
e 162 222
e 162 223
e 162 236
e 162 239
e 162 244
e 162 245
e 162 249
e 163 174
e 163 177
e 163 185
e 163 205
e 163 224
e 163 225
e 164 176
e 164 191
e 164 194
e 164 225
e 164 249
e 165 169
e 165 184
e 165 187
e 165 197
e 165 198
e 165 229
e 165 232
e 165 238
e 165 244
e 166 168
e 166 172
e 166 199
e 166 200
e 166 208
e 166 226
e 166 228
e 166 235
e 166 241
e 166 244
e 166 246
e 166 247
e 167 169
e 167 186
e 167 194
e 167 198
e 167 199
e 167 207
e 167 209
e 167 215
e 167 245
e 168 183
e 168 190
e 168 191
e 168 201
e 168 212
e 168 223
e 168 230
e 168 248
e 169 172
e 169 177
e 169 188
e 169 211
e 169 217
e 169 224
e 169 231
e 169 237
e 170 172
e 170 179
e 170 207
e 170 215
e 170 218
e 170 219
e 170 230
e 170 248
e 170 249
e 171 174
e 171 186
e 171 187
e 171 202
e 171 214
e 171 219
e 171 237
e 171 246
e 172 177
e 172 183
e 172 189
e 172 191
e 172 195
e 172 203
e 172 205
e 172 218
e 172 235
e 172 244
e 173 179
e 173 180
e 173 240
e 174 178
e 174 186
e 174 203
e 174 214
e 174 229
e 174 230
e 174 241
e 174 243
e 175 181
e 175 199
e 175 209
e 175 212
e 175 223
e 175 232
e 175 239
e 175 240
e 176 187
e 176 193
e 176 197
e 176 203
e 176 216
e 176 222
e 176 239
e 176 240
e 176 246
e 176 248
e 177 181
e 177 221
e 177 231
e 177 246
e 178 207
e 178 218
e 178 220
e 178 225
e 178 235
e 178 237
e 178 243
e 179 188
e 179 193
e 179 195
e 179 206
e 179 215
e 179 219
e 179 227
e 179 230
e 179 233
e 179 247
e 180 202
e 180 203
e 180 206
e 180 215
e 180 234
e 180 244
e 180 246
e 181 193
e 181 205
e 181 248
e 182 186
e 182 193
e 182 229
e 182 241
e 183 195
e 183 206
e 183 208
e 183 220
e 183 233
e 183 235
e 183 238
e 183 241
e 184 192
e 184 201
e 184 239
e 184 241
e 184 250
e 185 197
e 185 198
e 185 224
e 185 229
e 185 240
e 185 241
e 186 200
e 186 204
e 186 205
e 186 227
e 186 233
e 186 234
e 187 213
e 187 214
e 187 229
e 187 243
e 187 245
e 188 198
e 188 203
e 188 208
e 188 209
e 188 214
e 188 227
e 188 239
e 189 200
e 189 218
e 189 227
e 189 228
e 189 237
e 189 242
e 189 247
e 190 196
e 190 207
e 190 220
e 190 224
e 190 235
e 190 240
e 190 248
e 191 193
e 191 201
e 191 238
e 192 199
e 192 209
e 192 213
e 192 229
e 192 232
e 192 236
e 192 237
e 192 244
e 193 194
e 193 196
e 193 200
e 193 238
e 193 242
e 193 244
e 193 247
e 194 235
e 195 201
e 195 231
e 195 236
e 195 243
e 196 243
e 197 206
e 198 205
e 198 206
e 198 210
e 198 215
e 198 218
e 198 225
e 198 232
e 198 250
e 199 220
e 199 221
e 199 224
e 199 236
e 199 240
e 199 248
e 199 250
e 200 204
e 200 208
e 200 215
e 200 242
e 200 244
e 201 212
e 201 213
e 201 220
e 201 232
e 201 240
e 201 248
e 202 206
e 202 213
e 202 226
e 202 230
e 202 231
e 202 236
e 202 244
e 203 211
e 203 212
e 203 226
e 203 233
e 203 234
e 203 236
e 203 239
e 203 241
e 203 247
e 204 205
e 204 210
e 204 213
e 204 219
e 204 245
e 205 213
e 205 215
e 205 216
e 205 227
e 205 236
e 205 244
e 205 249
e 205 250
e 206 219
e 206 239
e 206 247
e 206 249
e 207 218
e 207 228
e 207 236
e 207 238
e 207 242
e 208 218
e 208 220
e 208 227
e 209 230
e 209 237
e 209 248
e 210 218
e 210 234
e 210 235
e 211 224
e 211 231
e 212 216
e 212 223
e 212 230
e 212 233
e 212 245
e 212 246
e 213 222
e 213 226
e 213 230
e 213 245
e 213 246
e 214 235
e 214 236
e 214 245
e 214 248
e 214 250
e 215 232
e 216 220
e 216 231
e 216 249
e 216 250
e 217 238
e 217 241
e 217 242
e 217 245
e 217 247
e 217 248
e 218 240
e 218 246
e 219 241
e 219 249
e 220 221
e 220 233
e 220 237
e 220 243
e 220 249
e 222 230
e 223 230
e 223 243
e 223 244
e 224 233
e 224 240
e 224 242
e 225 239
e 225 244
e 225 246
e 226 232
e 226 236
e 226 243
e 227 247
e 229 233
e 229 238
e 229 249
e 230 234
e 230 241
e 232 233
e 232 243
e 232 250
e 233 238
e 233 242
e 233 244
e 234 240
e 234 247
e 235 242
e 235 244
e 235 245
e 236 240
e 236 244
e 237 240
e 237 249
e 238 240
e 239 240
e 240 246
e 241 243
e 241 246
e 241 248
e 244 250
e 245 248
